p cnf 12 50 
2 12 6 0
5 7 -12 0
-11 2 12 0
5 -3 -8 0
8 -6 -11 0
7 -12 5 0
6 -7 4 0
-10 -9 8 0
3 12 10 0
12 11 8 0
-10 -6 12 0
11 1 8 0
-11 7 -2 0
8 4 2 0
-10 12 -2 0
3 6 9 0
8 -10 6 0
1 4 8 0
5 -4 -1 0
12 4 -2 0
12 3 -9 0
-3 -12 7 0
-2 -8 -6 0
-2 -3 -11 0
-11 10 -5 0
1 9 -6 0
11 -10 -2 0
-12 -8 5 0
-6 2 -10 0
10 12 -11 0
8 -12 -3 0
2 -4 1 0
-8 -2 -10 0
11 -3 -4 0
4 -5 -3 0
-12 -4 6 0
-4 3 -11 0
6 1 -12 0
-12 11 -1 0
-8 -2 -9 0
-3 -5 2 0
3 -9 5 0
-3 -7 2 0
-2 -9 11 0
-12 -1 -10 0
5 -8 11 0
-2 1 -3 0
11 5 -3 0
-1 3 4 0
11 -10 6 0
